set M := 1 2 3 4;

param A:
	1	2	3	4	5	6	7	8:=
1	-3.933	0.107	0.126	0	-9.99	0	-45.83	-7.64
2	0	-0.987	0	-22.95	0	-28.37	0	0
3	0.002	0	-0.235	0	5.67	0	-0.921	-6.51
4	0	1.0	0	-1.0	0	-0.168	0	0
5	0	0	-1.0	0	-0.196	0	-0.0071	0;
